n_boats=80;
n_periods=20;
capacity=[4,12,7,3,7,10,12,10,6,6,4,10,6,8,9,12,12,11,11,6,3,2,11,10,11,12,10,2,7,9,9,4,3,2,9,2,8,8,12,12,10,6,2,3,3,2,7,2,10,11,9,7,7,8,10,7,2,4,9,7,3,9,2,8,1,11,9,10,4,8,3,5,10,2,12,12,9,1,8,4];
crew=[1,2,4,2,5,1,2,9,4,5,2,3,3,4,6,2,10,8,2,6,2,1,4,2,4,1,10,2,4,8,3,2,2,1,2,2,4,1,11,5,9,1,2,1,1,1,6,2,5,2,2,6,3,8,7,5,2,2,8,2,3,7,1,4,1,1,5,7,3,2,1,2,10,1,11,10,4,1,8,1];
